NAME: random-18-27735
TYPE: TSP
COMMENT: size=18 seed=27735
DIMENSION: 38
EDGE_WEIGHT_TYPE: EUC_2D
NODE_COORD_SECTION
+0 145 759
-0 145 759
+1 478 336
-1 152 614
+2 925 934
-2 908 593
+3 858 44
-3 591 628
+4 87 4
-4 202 929
+5 739 806
-5 370 560
+6 804 497
-6 915 338
+7 321 16
-7 486 177
+8 807 793
-8 845 614
+9 303 102
-9 123 31
+10 148 523
-10 681 542
+11 832 870
-11 434 446
+12 329 754
-12 809 352
+13 62 112
-13 272 304
+14 169 348
-14 798 392
+15 440 686
-15 122 984
+16 227 55
-16 588 28
+17 538 640
-17 141 897
+18 177 987
-18 51 283
PRECEDENCE_SECTION
+0 -0
+1 -1
+2 -2
+3 -3
+4 -4
+5 -5
+6 -6
+7 -7
+8 -8
+9 -9
+10 -10
+11 -11
+12 -12
+13 -13
+14 -14
+15 -15
+16 -16
+17 -17
+18 -18
EOF
